<number of tasks>
53

<cycle time>
2004

<task times>
1 971
2 142
3 142
4 142
5 103
6 96
7 99
8 1207
9 160
10 180
11 82
12 60
13 112
14 420
15 1556
16 236
17 259
18 125
19 601
20 80
21 80
22 70
23 89
24 89
25 105
26 330
27 132
28 69
29 99
30 70
31 70
32 158
33 191
34 70
35 53
36 50
37 125
38 353
39 70
40 128
41 65
42 1775
43 91
44 91
45 113
46 487
47 138
48 80
49 80
50 65
51 40
52 742
53 1085

<precedence relations>
1,2
1,3
1,4
1,5
1,6
1,7
2,36
3,36
4,9
5,9
6,9
7,9
8,9
9,10
10,11
11,12
12,13
12,14
12,15
13,16
13,17
13,18
14,22
15,16
15,17
16,29
16,30
16,31
17,19
18,42
19,20
19,21
19,22
20,23
21,24
22,25
23,36
24,36
25,26
26,27
27,28
28,29
28,30
28,31
28,32
28,33
28,34
29,35
30,35
31,35
32,35
33,35
34,35
35,36
36,37
37,38
37,39
37,40
38,41
39,41
40,41
41,42
42,43
42,44
42,45
42,46
42,47
43,48
44,49
45,51
45,52
46,50
47,51
47,52
48,51
48,52
49,51
49,52
50,51
50,52
51,53
52,53

<setup times forward>
1,8:54
2,8:54
2,9:54
2,10:54
2,11:54
2,12:54
2,13:54
2,14:19
2,15:20
2,16:19
2,17:20
2,18:54
2,19:19
2,20:13
2,21:13
2,22:19
2,23:13
2,24:13
2,25:19
2,26:19
2,27:19
2,28:19
2,29:13
2,30:13
2,31:13
2,32:13
2,33:13
2,34:13
2,35:13
2,36:13
3,8:54
3,9:54
3,10:54
3,11:54
3,12:54
3,13:54
3,14:19
3,15:20
3,16:19
3,17:20
3,18:54
3,19:19
3,20:13
3,21:13
3,22:19
3,23:13
3,24:13
3,25:19
3,26:19
3,27:19
3,28:19
3,29:13
3,30:13
3,31:13
3,32:13
3,33:13
3,34:13
3,35:13
3,36:13
4,8:54
4,9:54
5,8:54
5,9:54
6,8:54
6,9:54
7,8:54
7,9:54
8,1:54
8,2:54
8,3:54
8,4:54
8,5:54
8,6:54
8,7:54
9,2:54
9,3:54
10,2:54
10,3:54
11,2:54
11,3:54
12,2:54
12,3:54
12,14:35
12,15:74
13,2:54
13,3:54
13,14:35
13,15:74
13,16:35
13,17:74
14,2:19
14,3:19
14,13:35
14,15:39
14,17:39
14,18:35
14,20:6
14,21:6
14,23:6
14,24:6
15,2:20
15,3:20
15,13:74
15,14:39
15,16:39
15,18:74
16,2:19
16,3:19
16,17:39
16,18:35
16,20:6
16,21:6
16,23:6
16,24:6
16,29:6
16,30:6
16,31:6
16,32:6
16,33:6
16,34:6
17,2:20
17,3:20
17,14:39
17,16:39
17,18:74
17,19:39
18,2:54
18,3:54
18,14:35
18,15:74
18,16:35
18,17:74
18,19:35
18,20:41
18,21:41
18,22:35
18,23:41
18,24:41
18,25:35
18,26:35
18,27:35
18,28:35
18,29:41
18,30:41
18,31:41
18,32:41
18,33:41
18,34:41
18,35:41
18,36:41
18,37:41
18,38:41
18,39:41
18,40:84
18,41:84
18,42:84
19,2:19
19,3:19
19,18:35
19,20:6
19,21:6
20,2:13
20,3:13
20,14:6
20,16:6
20,18:41
20,22:6
20,25:6
20,26:6
20,27:6
20,28:6
21,2:13
21,3:13
21,14:6
21,16:6
21,18:41
21,22:6
21,25:6
21,26:6
21,27:6
21,28:6
22,2:19
22,3:19
22,18:35
22,20:6
22,21:6
22,23:6
22,24:6
23,2:13
23,3:13
23,14:6
23,16:6
23,18:41
23,22:6
23,25:6
23,26:6
23,27:6
23,28:6
24,2:13
24,3:13
24,14:6
24,16:6
24,18:41
24,22:6
24,25:6
24,26:6
24,27:6
24,28:6
25,2:19
25,3:19
25,18:35
25,20:6
25,21:6
25,23:6
25,24:6
26,2:19
26,3:19
26,18:35
26,20:6
26,21:6
26,23:6
26,24:6
27,2:19
27,3:19
27,18:35
27,20:6
27,21:6
27,23:6
27,24:6
28,2:19
28,3:19
28,18:35
28,20:6
28,21:6
28,23:6
28,24:6
28,29:6
28,30:6
28,31:6
28,32:6
28,33:6
28,34:6
29,2:13
29,3:13
29,18:41
30,2:13
30,3:13
30,18:41
31,2:13
31,3:13
31,18:41
32,2:13
32,3:13
32,16:6
32,18:41
33,2:13
33,3:13
33,16:6
33,18:41
34,2:13
34,3:13
34,16:6
34,18:41
35,2:13
35,3:13
35,18:41
36,18:41
37,18:41
37,40:43
38,18:41
38,40:43
38,41:43
39,18:41
39,40:43
39,41:43
40,18:84
40,38:43
40,39:43
41,18:84
42,43:28
42,44:28
42,45:28
42,46:28
42,47:28
43,50:44
44,50:44
45,50:44
45,51:44
45,52:44
46,50:44
47,50:44
47,51:44
47,52:44
48,50:44
48,51:44
48,52:44
49,50:44
49,51:44
49,52:44
50,43:44
50,44:44
50,45:44
50,47:44
50,48:44
50,49:44

<setup times backward>
1,1:36
2,1:36
2,2:36
2,3:36
2,4:36
2,5:36
2,6:36
2,7:36
2,14:17
2,15:56
2,16:17
2,17:56
2,19:17
2,20:23
2,21:23
2,22:17
2,23:23
2,24:23
2,25:17
2,26:17
2,27:17
2,28:17
2,29:23
2,30:23
2,31:23
2,32:23
2,33:23
2,34:23
2,35:23
3,1:36
3,2:36
3,3:36
3,4:36
3,5:36
3,6:36
3,7:36
3,14:17
3,15:56
3,16:17
3,17:56
3,19:17
3,20:23
3,21:23
3,22:17
3,23:23
3,24:23
3,25:17
3,26:17
3,27:17
3,28:17
3,29:23
3,30:23
3,31:23
3,32:23
3,33:23
3,34:23
3,35:23
4,1:36
4,2:36
4,3:36
4,4:36
4,5:36
4,6:36
4,7:36
5,1:36
5,2:36
5,3:36
5,4:36
5,5:36
5,6:36
5,7:36
6,1:36
6,2:36
6,3:36
6,4:36
6,5:36
6,6:36
6,7:36
7,1:36
7,2:36
7,3:36
7,4:36
7,5:36
7,6:36
7,7:36
8,1:90
8,2:90
8,3:90
8,4:90
8,5:90
8,6:90
8,7:90
8,8:36
9,1:90
9,2:90
9,3:90
9,4:90
9,5:90
9,6:90
9,7:90
9,8:36
9,9:36
10,1:90
10,2:90
10,3:90
10,4:90
10,5:90
10,6:90
10,7:90
10,8:36
10,9:36
10,10:36
11,1:90
11,2:90
11,3:90
11,4:90
11,5:90
11,6:90
11,7:90
11,8:36
11,9:36
11,10:36
11,11:36
12,1:90
12,2:90
12,3:90
12,4:90
12,5:90
12,6:90
12,7:90
12,8:36
12,9:36
12,10:36
12,11:36
12,12:36
13,1:90
13,2:90
13,3:90
13,4:90
13,5:90
13,6:90
13,7:90
13,8:36
13,9:36
13,10:36
13,11:36
13,12:36
13,13:36
13,14:71
13,15:110
14,1:55
14,2:55
14,3:55
14,4:55
14,5:55
14,6:55
14,7:55
14,8:1
14,9:1
14,10:1
14,11:1
14,12:1
14,13:1
14,14:36
14,15:75
14,16:36
14,17:75
14,18:1
14,19:36
14,20:42
14,21:42
14,23:42
14,24:42
15,1:16
15,2:16
15,3:16
15,4:16
15,5:16
15,6:16
15,7:16
15,15:36
16,1:55
16,2:55
16,3:55
16,4:55
16,5:55
16,6:55
16,7:55
16,8:1
16,9:1
16,10:1
16,11:1
16,12:1
16,13:1
16,14:36
16,15:75
16,16:36
16,17:75
16,18:1
16,19:36
16,20:42
16,21:42
16,22:36
16,23:42
16,24:42
16,25:36
16,26:36
16,27:36
16,28:36
16,32:42
16,33:42
16,34:42
17,1:16
17,2:16
17,3:16
17,4:16
17,5:16
17,6:16
17,7:16
17,15:36
17,17:36
18,1:90
18,2:90
18,3:90
18,4:90
18,5:90
18,6:90
18,7:90
18,8:36
18,9:36
18,10:36
18,11:36
18,12:36
18,13:36
18,14:71
18,15:110
18,16:71
18,17:110
18,18:36
18,19:71
18,20:77
18,21:77
18,22:71
18,23:77
18,24:77
18,25:71
18,26:71
18,27:71
18,28:71
18,29:77
18,30:77
18,31:77
18,32:77
18,33:77
18,34:77
18,35:77
18,36:77
18,37:77
18,38:77
18,39:77
18,40:120
18,41:120
19,1:55
19,2:55
19,3:55
19,4:55
19,5:55
19,6:55
19,7:55
19,8:1
19,9:1
19,10:1
19,11:1
19,12:1
19,13:1
19,14:36
19,15:75
19,16:36
19,17:75
19,18:1
19,19:36
20,1:49
20,2:49
20,3:49
20,4:49
20,5:49
20,6:49
20,7:49
20,14:30
20,15:69
20,16:30
20,17:69
20,19:30
20,20:36
20,21:36
20,22:30
20,24:36
20,25:30
20,26:30
20,27:30
20,28:30
20,29:36
20,30:36
20,31:36
20,32:36
20,33:36
20,34:36
20,35:36
21,1:49
21,2:49
21,3:49
21,4:49
21,5:49
21,6:49
21,7:49
21,14:30
21,15:69
21,16:30
21,17:69
21,19:30
21,20:36
21,21:36
21,22:30
21,23:36
21,25:30
21,26:30
21,27:30
21,28:30
21,29:36
21,30:36
21,31:36
21,32:36
21,33:36
21,34:36
21,35:36
22,1:55
22,2:55
22,3:55
22,4:55
22,5:55
22,6:55
22,7:55
22,8:1
22,9:1
22,10:1
22,11:1
22,12:1
22,13:1
22,14:36
22,15:75
22,16:36
22,17:75
22,18:1
22,19:36
22,20:42
22,21:42
22,22:36
22,23:42
22,24:42
23,1:49
23,2:49
23,3:49
23,4:49
23,5:49
23,6:49
23,7:49
23,14:30
23,15:69
23,16:30
23,17:69
23,19:30
23,20:36
23,21:36
23,22:30
23,23:36
23,24:36
23,25:30
23,26:30
23,27:30
23,28:30
23,29:36
23,30:36
23,31:36
23,32:36
23,33:36
23,34:36
23,35:36
24,1:49
24,2:49
24,3:49
24,4:49
24,5:49
24,6:49
24,7:49
24,14:30
24,15:69
24,16:30
24,17:69
24,19:30
24,20:36
24,21:36
24,22:30
24,23:36
24,24:36
24,25:30
24,26:30
24,27:30
24,28:30
24,29:36
24,30:36
24,31:36
24,32:36
24,33:36
24,34:36
24,35:36
25,1:55
25,2:55
25,3:55
25,4:55
25,5:55
25,6:55
25,7:55
25,8:1
25,9:1
25,10:1
25,11:1
25,12:1
25,13:1
25,14:36
25,15:75
25,16:36
25,17:75
25,18:1
25,19:36
25,20:42
25,21:42
25,22:36
25,23:42
25,24:42
25,25:36
26,1:55
26,2:55
26,3:55
26,4:55
26,5:55
26,6:55
26,7:55
26,8:1
26,9:1
26,10:1
26,11:1
26,12:1
26,13:1
26,14:36
26,15:75
26,16:36
26,17:75
26,18:1
26,19:36
26,20:42
26,21:42
26,22:36
26,23:42
26,24:42
26,25:36
26,26:36
27,1:55
27,2:55
27,3:55
27,4:55
27,5:55
27,6:55
27,7:55
27,8:1
27,9:1
27,10:1
27,11:1
27,12:1
27,13:1
27,14:36
27,15:75
27,16:36
27,17:75
27,18:1
27,19:36
27,20:42
27,21:42
27,22:36
27,23:42
27,24:42
27,25:36
27,26:36
27,27:36
28,1:55
28,2:55
28,3:55
28,4:55
28,5:55
28,6:55
28,7:55
28,8:1
28,9:1
28,10:1
28,11:1
28,12:1
28,13:1
28,14:36
28,15:75
28,16:36
28,17:75
28,18:1
28,19:36
28,20:42
28,21:42
28,22:36
28,23:42
28,24:42
28,25:36
28,26:36
28,27:36
28,28:36
29,1:49
29,2:49
29,3:49
29,4:49
29,5:49
29,6:49
29,7:49
29,14:30
29,15:69
29,16:30
29,17:69
29,19:30
29,20:36
29,21:36
29,22:30
29,23:36
29,24:36
29,25:30
29,26:30
29,27:30
29,28:30
29,29:36
29,30:36
29,31:36
29,32:36
29,33:36
29,34:36
30,1:49
30,2:49
30,3:49
30,4:49
30,5:49
30,6:49
30,7:49
30,14:30
30,15:69
30,16:30
30,17:69
30,19:30
30,20:36
30,21:36
30,22:30
30,23:36
30,24:36
30,25:30
30,26:30
30,27:30
30,28:30
30,29:36
30,30:36
30,31:36
30,32:36
30,33:36
30,34:36
31,1:49
31,2:49
31,3:49
31,4:49
31,5:49
31,6:49
31,7:49
31,14:30
31,15:69
31,16:30
31,17:69
31,19:30
31,20:36
31,21:36
31,22:30
31,23:36
31,24:36
31,25:30
31,26:30
31,27:30
31,28:30
31,29:36
31,30:36
31,31:36
31,32:36
31,33:36
31,34:36
32,1:49
32,2:49
32,3:49
32,4:49
32,5:49
32,6:49
32,7:49
32,14:30
32,15:69
32,16:30
32,17:69
32,19:30
32,20:36
32,21:36
32,22:30
32,23:36
32,24:36
32,25:30
32,26:30
32,27:30
32,28:30
32,29:36
32,30:36
32,31:36
32,32:36
32,33:36
32,34:36
33,1:49
33,2:49
33,3:49
33,4:49
33,5:49
33,6:49
33,7:49
33,14:30
33,15:69
33,16:30
33,17:69
33,19:30
33,20:36
33,21:36
33,22:30
33,23:36
33,24:36
33,25:30
33,26:30
33,27:30
33,28:30
33,29:36
33,30:36
33,31:36
33,32:36
33,33:36
33,34:36
34,1:49
34,2:49
34,3:49
34,4:49
34,5:49
34,6:49
34,7:49
34,14:30
34,15:69
34,16:30
34,17:69
34,19:30
34,20:36
34,21:36
34,22:30
34,23:36
34,24:36
34,25:30
34,26:30
34,27:30
34,28:30
34,29:36
34,30:36
34,31:36
34,32:36
34,33:36
34,34:36
35,1:49
35,2:49
35,3:49
35,4:49
35,5:49
35,6:49
35,7:49
35,14:30
35,15:69
35,16:30
35,17:69
35,19:30
35,20:36
35,21:36
35,22:30
35,23:36
35,24:36
35,25:30
35,26:30
35,27:30
35,28:30
35,29:36
35,30:36
35,31:36
35,32:36
35,33:36
35,34:36
35,35:36
36,1:49
36,2:49
36,3:49
36,4:49
36,5:49
36,6:49
36,7:49
36,14:30
36,15:69
36,16:30
36,17:69
36,19:30
36,20:36
36,21:36
36,22:30
36,23:36
36,24:36
36,25:30
36,26:30
36,27:30
36,28:30
36,29:36
36,30:36
36,31:36
36,32:36
36,33:36
36,34:36
36,35:36
36,36:36
37,1:49
37,2:49
37,3:49
37,4:49
37,5:49
37,6:49
37,7:49
37,14:30
37,15:69
37,16:30
37,17:69
37,19:30
37,20:36
37,21:36
37,22:30
37,23:36
37,24:36
37,25:30
37,26:30
37,27:30
37,28:30
37,29:36
37,30:36
37,31:36
37,32:36
37,33:36
37,34:36
37,35:36
37,36:36
37,37:36
38,1:49
38,2:49
38,3:49
38,4:49
38,5:49
38,6:49
38,7:49
38,14:30
38,15:69
38,16:30
38,17:69
38,19:30
38,20:36
38,21:36
38,22:30
38,23:36
38,24:36
38,25:30
38,26:30
38,27:30
38,28:30
38,29:36
38,30:36
38,31:36
38,32:36
38,33:36
38,34:36
38,35:36
38,36:36
38,37:36
38,38:36
38,39:36
38,40:79
39,1:49
39,2:49
39,3:49
39,4:49
39,5:49
39,6:49
39,7:49
39,14:30
39,15:69
39,16:30
39,17:69
39,19:30
39,20:36
39,21:36
39,22:30
39,23:36
39,24:36
39,25:30
39,26:30
39,27:30
39,28:30
39,29:36
39,30:36
39,31:36
39,32:36
39,33:36
39,34:36
39,35:36
39,36:36
39,37:36
39,38:36
39,39:36
39,40:79
40,1:6
40,2:6
40,3:6
40,4:6
40,5:6
40,6:6
40,7:6
40,15:26
40,17:26
40,40:36
41,1:6
41,2:6
41,3:6
41,4:6
41,5:6
41,6:6
41,7:6
41,15:26
41,17:26
41,40:36
41,41:36
42,1:6
42,2:6
42,3:6
42,4:6
42,5:6
42,6:6
42,7:6
42,15:26
42,17:26
42,40:36
42,41:36
42,42:36
43,1:34
43,2:34
43,3:34
43,4:34
43,5:34
43,6:34
43,7:34
43,14:15
43,15:54
43,16:15
43,17:54
43,19:15
43,20:21
43,21:21
43,22:15
43,23:21
43,24:21
43,25:15
43,26:15
43,27:15
43,28:15
43,29:21
43,30:21
43,31:21
43,32:21
43,33:21
43,34:21
43,35:21
43,36:21
43,37:21
43,38:21
43,39:21
43,40:64
43,41:64
43,42:64
43,43:36
43,44:36
43,45:36
43,46:36
43,47:36
43,49:36
43,50:80
44,1:34
44,2:34
44,3:34
44,4:34
44,5:34
44,6:34
44,7:34
44,14:15
44,15:54
44,16:15
44,17:54
44,19:15
44,20:21
44,21:21
44,22:15
44,23:21
44,24:21
44,25:15
44,26:15
44,27:15
44,28:15
44,29:21
44,30:21
44,31:21
44,32:21
44,33:21
44,34:21
44,35:21
44,36:21
44,37:21
44,38:21
44,39:21
44,40:64
44,41:64
44,42:64
44,43:36
44,44:36
44,45:36
44,46:36
44,47:36
44,48:36
44,50:80
45,1:34
45,2:34
45,3:34
45,4:34
45,5:34
45,6:34
45,7:34
45,14:15
45,15:54
45,16:15
45,17:54
45,19:15
45,20:21
45,21:21
45,22:15
45,23:21
45,24:21
45,25:15
45,26:15
45,27:15
45,28:15
45,29:21
45,30:21
45,31:21
45,32:21
45,33:21
45,34:21
45,35:21
45,36:21
45,37:21
45,38:21
45,39:21
45,40:64
45,41:64
45,42:64
45,43:36
45,44:36
45,45:36
45,46:36
45,47:36
45,48:36
45,49:36
45,50:80
46,1:34
46,2:34
46,3:34
46,4:34
46,5:34
46,6:34
46,7:34
46,14:15
46,15:54
46,16:15
46,17:54
46,19:15
46,20:21
46,21:21
46,22:15
46,23:21
46,24:21
46,25:15
46,26:15
46,27:15
46,28:15
46,29:21
46,30:21
46,31:21
46,32:21
46,33:21
46,34:21
46,35:21
46,36:21
46,37:21
46,38:21
46,39:21
46,40:64
46,41:64
46,42:64
46,43:36
46,44:36
46,45:36
46,46:36
46,47:36
46,48:36
46,49:36
47,1:34
47,2:34
47,3:34
47,4:34
47,5:34
47,6:34
47,7:34
47,14:15
47,15:54
47,16:15
47,17:54
47,19:15
47,20:21
47,21:21
47,22:15
47,23:21
47,24:21
47,25:15
47,26:15
47,27:15
47,28:15
47,29:21
47,30:21
47,31:21
47,32:21
47,33:21
47,34:21
47,35:21
47,36:21
47,37:21
47,38:21
47,39:21
47,40:64
47,41:64
47,42:64
47,43:36
47,44:36
47,45:36
47,46:36
47,47:36
47,48:36
47,49:36
47,50:80
48,1:34
48,2:34
48,3:34
48,4:34
48,5:34
48,6:34
48,7:34
48,14:15
48,15:54
48,16:15
48,17:54
48,19:15
48,20:21
48,21:21
48,22:15
48,23:21
48,24:21
48,25:15
48,26:15
48,27:15
48,28:15
48,29:21
48,30:21
48,31:21
48,32:21
48,33:21
48,34:21
48,35:21
48,36:21
48,37:21
48,38:21
48,39:21
48,40:64
48,41:64
48,42:64
48,43:36
48,44:36
48,45:36
48,46:36
48,47:36
48,48:36
48,49:36
48,50:80
49,1:34
49,2:34
49,3:34
49,4:34
49,5:34
49,6:34
49,7:34
49,14:15
49,15:54
49,16:15
49,17:54
49,19:15
49,20:21
49,21:21
49,22:15
49,23:21
49,24:21
49,25:15
49,26:15
49,27:15
49,28:15
49,29:21
49,30:21
49,31:21
49,32:21
49,33:21
49,34:21
49,35:21
49,36:21
49,37:21
49,38:21
49,39:21
49,40:64
49,41:64
49,42:64
49,43:36
49,44:36
49,45:36
49,46:36
49,47:36
49,48:36
49,49:36
49,50:80
50,15:10
50,17:10
50,40:20
50,41:20
50,42:20
50,50:36
51,15:10
51,17:10
51,40:20
51,41:20
51,42:20
51,50:36
51,51:36
51,52:36
52,15:10
52,17:10
52,40:20
52,41:20
52,42:20
52,50:36
52,51:36
52,52:36
53,15:10
53,17:10
53,40:20
53,41:20
53,42:20
53,50:36
53,51:36
53,52:36
53,53:36

<end>

<optimal SALBP-1 value>
8


<rand seed>
467321153

